db/inputs/624315158520313168748139242709028412.smt2
(set-logic QF_FP)
(declare-const x0 (_ FloatingPoint 8 24))
(declare-const x1 (_ FloatingPoint 8 24))
(declare-const x2 (_ FloatingPoint 8 24))
(declare-const x3 (_ FloatingPoint 8 24))
(declare-const x4 (_ FloatingPoint 8 24))
(declare-const x5 (_ FloatingPoint 8 24))
(declare-const x6 (_ FloatingPoint 8 24))
(declare-const x7 (_ FloatingPoint 8 24))
(declare-const x8 (_ FloatingPoint 8 24))
(declare-const x9 (_ FloatingPoint 8 24))
(declare-const x10 (_ FloatingPoint 8 24))
(declare-const x11 (_ FloatingPoint 8 24))
(declare-const x12 (_ FloatingPoint 8 24))
(declare-const x13 (_ FloatingPoint 8 24))
(declare-const x14 (_ FloatingPoint 8 24))
(declare-const x15 (_ FloatingPoint 8 24))
(declare-const x16 (_ FloatingPoint 8 24))
(declare-const x17 (_ FloatingPoint 8 24))
(declare-const x18 (_ FloatingPoint 8 24))
(declare-const x19 (_ FloatingPoint 8 24))
(declare-const x20 (_ FloatingPoint 8 24))
(assert (fp.leq (fp.neg (fp.add RNE (fp.div RNE (fp.div RNE x7 x12) (fp.mul RNE x16 x4)) (fp.sub RNE (fp.mul RNE x19 x1) (fp.neg x6)))) (fp.add RNE (fp.sub RNE (fp.neg (fp.div RNE x6 x5)) (fp.neg (fp.neg x15))) (fp.div RNE (fp.add RNE (fp.sub RNE x14 x18) (fp.add RNE x19 x5)) (fp.add RNE (fp.neg x10) (fp.mul RNE x9 x0))))))
(assert (fp.eq (fp.mul RNE (fp.div RNE (fp.add RNE (fp.neg x10) (fp.add RNE x0 x4)) (fp.neg (fp.add RNE x15 x2))) (fp.neg (fp.div RNE (fp.add RNE x12 x12) (fp.mul RNE x9 x15)))) (fp.mul RNE (fp.div RNE (fp.neg (fp.mul RNE x18 x13)) (fp.mul RNE (fp.neg x3) (fp.add RNE x8 x3))) (fp.add RNE (fp.add RNE (fp.sub RNE x5 x3) (fp.sub RNE x20 x3)) (fp.add RNE (fp.div RNE x8 x15) (fp.mul RNE x16 x9))))))
(assert (fp.gt (fp.div RNE (fp.div RNE (fp.div RNE (fp.sub RNE x10 x17) (fp.sub RNE x12 x20)) (fp.div RNE (fp.neg x2) (fp.mul RNE x14 x3))) (fp.sub RNE (fp.neg (fp.add RNE x16 x18)) (fp.mul RNE (fp.neg x4) (fp.div RNE x2 x2)))) (fp.mul RNE (fp.mul RNE (fp.mul RNE (fp.sub RNE x16 x3) (fp.neg x5)) (fp.neg (fp.div RNE x0 x18))) (fp.div RNE (fp.neg (fp.add RNE x8 x4)) (fp.add RNE (fp.mul RNE x19 x19) (fp.div RNE x7 x5))))))
(check-sat)
