db/data/624315158520313168748139242709028412.z3.out
-------------------
2500.096142529
